db/data/3011458682628592434561622344114621.z3.out
sat
-------------------
91.026761158
